clingo version 5.2.2
Reading from ...bust-coloring/instances/4-FullIns_5.lp ...
UNKNOWN

INTERRUPTED  : 1
Models       : 0+
Calls        : 1
Time         : 0.417s (Solving: 0.00s 1st Model: 0.00s Unsat: 0.00s)
CPU Time     : 0.417s
Threads      : 20       (Winner: 0)

elapsed time for 4-FullIns_5 was .424022053 seconds
